66469102692244412375011,15,1,2,014,3,1,2,014,13,1,2,07,15,1,2,02,4,1,2,02,6,1,2,02,9,1,2,01,9,1,2,010,5,1,2,06,13,1,2,06,8,1,2,06,14,1,2,09,12,1,2,014,2,1,2,011,14,1,2,02,3,1,2,08,14,1,2,07,7,1,2,05,8,1,2,014,13,1,2,08,11,1,2,013,13,1,2,09,3,1,2,08,9,1,2,06,14,1,2,09,2,1,2,06,5,1,2,015,14,1,2,07,9,1,2,04,13,1,2,05,4,1,2,014,9,1,2,05,15,1,2,012,4,1,2,013,6,1,2,07,13,1,2,013,8,1,2,014,10,1,2,04,12,1,2,07,3,1,2,01,14,1,2,015,10,1,2,010,2,1,2,013,11,1,2,015,6,1,2,06,11,1,2,02,7,1,2,09,12,1,2,015,1,1,2,015,6,1,2,0